Gurobi Optimizer version 9.1.2 build v9.1.2rc0 (linux64)
Thread count: 36 physical cores, 72 logical processors, using up to 32 threads
Optimize a model with 12 rows, 57 columns and 590 nonzeros
Model fingerprint: 0xf32eec78
Model has 47 quadratic constraints
Coefficient statistics:
  Matrix range     [2e-05, 3e+00]
  QMatrix range    [1e+00, 1e+00]
  QLMatrix range   [1e+00, 1e+00]
  Objective range  [8e-03, 7e-01]
  Bounds range     [1e+00, 1e+00]
  RHS range        [1e+00, 1e+00]
Presolve removed 9 rows and 0 columns

Continuous model is non-convex -- solving as a MIP.

Presolve removed 9 rows and 0 columns
Presolve time: 0.00s
Presolved: 189 rows, 57 columns, 443 nonzeros
Presolved model has 47 bilinear constraint(s)
Variable types: 57 continuous, 0 integer (0 binary)

Root relaxation: objective -1.743721e+00, 44 iterations, 0.00 seconds

    Nodes    |    Current Node    |     Objective Bounds      |     Work
 Expl Unexpl |  Obj  Depth IntInf | Incumbent    BestBd   Gap | It/Node Time

     0     0   -1.74372    0   38          -   -1.74372      -     -    0s
H    0     0                       0.6147548   -1.74372   384%     -    0s
     0     0   -1.64739    0    1    0.61475   -1.64739   368%     -    0s
H    0     0                      -1.6450460   -1.64739  0.14%     -    0s
     0     0     cutoff    0        -1.64505   -1.64505  0.00%     -    0s

Cutting planes:
  RLT: 25
  BQP: 3

Explored 1 nodes (76 simplex iterations) in 0.01 seconds
Thread count was 32 (of 72 available processors)

Solution count 2: -1.64505 0.614755 
No other solutions better than -1.64505

Optimal solution found (tolerance 1.00e-04)
Best objective -1.645045978473e+00, best bound -1.645045978473e+00, gap 0.0000%

User-callback calls 78, time in user-callback 0.00 sec
Gurobi Optimizer version 9.1.2 build v9.1.2rc0 (linux64)
Thread count: 36 physical cores, 72 logical processors, using up to 32 threads
Optimize a model with 60 rows, 312 columns and 16100 nonzeros
Model fingerprint: 0x23deb3d5
Model has 262 quadratic constraints
Coefficient statistics:
  Matrix range     [4e-07, 7e+00]
  QMatrix range    [1e+00, 1e+00]
  QLMatrix range   [1e+00, 1e+00]
  Objective range  [4e-03, 1e+00]
  Bounds range     [1e+00, 1e+00]
  RHS range        [1e+00, 1e+00]
Presolve removed 17 rows and 0 columns

Continuous model is non-convex -- solving as a MIP.

Presolve removed 17 rows and 0 columns
Presolve time: 0.01s
Presolved: 1079 rows, 312 columns, 12824 nonzeros
Presolved model has 262 bilinear constraint(s)
Variable types: 312 continuous, 0 integer (0 binary)

Root relaxation: objective -2.237117e+01, 328 iterations, 0.02 seconds

    Nodes    |    Current Node    |     Objective Bounds      |     Work
 Expl Unexpl |  Obj  Depth IntInf | Incumbent    BestBd   Gap | It/Node Time

     0     0  -22.37117    0  172          -  -22.37117      -     -    0s
     0     0  -21.35866    0   78          -  -21.35866      -     -    0s
     0     0  -21.32468    0   78          -  -21.32468      -     -    0s
     0     0  -21.25319    0   74          -  -21.25319      -     -    0s
     0     0  -21.25203    0   74          -  -21.25203      -     -    0s
     0     0  -21.24282    0   78          -  -21.24282      -     -    0s
     0     0  -21.23959    0   81          -  -21.23959      -     -    0s
     0     0  -21.23155    0   81          -  -21.23155      -     -    0s
     0     0  -21.23099    0   81          -  -21.23099      -     -    0s
     0     0  -21.22952    0   69          -  -21.22952      -     -    0s
     0     0  -21.22948    0   69          -  -21.22948      -     -    0s
     0     0  -21.22795    0   69          -  -21.22795      -     -    0s
     0     0  -21.22786    0   81          -  -21.22786      -     -    0s
     0     0  -21.22648    0   81          -  -21.22648      -     -    0s
     0     0  -21.22335    0   86          -  -21.22335      -     -    0s
     0     0  -21.22293    0   74          -  -21.22293      -     -    0s
     0     0  -21.22249    0   74          -  -21.22249      -     -    0s
H    0     0                     -19.0052981  -21.22249  11.7%     -    0s
H    0     0                     -19.2731257  -21.22249  10.1%     -    0s
     0     2  -21.22249    0   74  -19.27313  -21.22249  10.1%     -    0s
* 1767  1587              66     -19.2932749  -20.52120  6.36%  50.9    1s
* 2146  1835              84     -19.7105597  -20.52120  4.11%  46.1    1s
* 2148  1835              85     -19.7105626  -20.52120  4.11%  46.1    1s
* 2374  1825              84     -19.7105717  -20.52120  4.11%  45.5    2s
* 2375  1825              84     -19.7105718  -20.52120  4.11%  45.5    2s
* 2569  1871              96     -19.7719493  -20.52120  3.79%  45.0    2s
* 2698  1833              96     -19.7719587  -20.52120  3.79%  44.7    2s
* 2699  1833              95     -19.7719748  -20.52120  3.79%  44.7    2s
* 2855  1854              65     -19.9317958  -20.52120  2.96%  44.2    2s
* 4909   772              60     -19.9319372  -20.52120  2.96%  45.2    3s
* 5025   825              61     -19.9319481  -20.52120  2.96%  44.8    3s
* 5026   825              61     -19.9319488  -20.52120  2.96%  44.8    3s
* 5250   986              62     -20.0199833  -20.52120  2.50%  44.2    3s
* 6628  1176              74     -20.0206929  -20.52120  2.50%  41.9    4s
* 6631  1176              75     -20.0206937  -20.52120  2.50%  41.9    4s
* 7354  1589              81     -20.0229978  -20.52120  2.49%  40.5    4s
* 7356  1589              82     -20.0231747  -20.52120  2.49%  40.5    4s
* 7358  1589              83     -20.0231787  -20.52120  2.49%  40.5    4s
* 7436  1589              79     -20.0429251  -20.52120  2.39%  40.4    4s
* 7441  1589              82     -20.0429558  -20.52120  2.39%  40.4    4s
  8707  1651  -20.21030   22   39  -20.04296  -20.39338  1.75%  39.8    5s
*12760  1768              66     -20.0429673  -20.10826  0.33%  36.0    6s
*12762  1768              67     -20.0429679  -20.10826  0.33%  36.0    6s
*12765  1768              66     -20.0429721  -20.10826  0.33%  36.0    6s
*12767  1768              67     -20.0429733  -20.10826  0.33%  36.0    6s
*13472  1744              64     -20.0430800  -20.09182  0.24%  35.2    6s
*13473  1744              64     -20.0430846  -20.09182  0.24%  35.2    6s
*14341  1809              63     -20.0431039  -20.08598  0.21%  34.3    6s
*14342  1809              63     -20.0431047  -20.08598  0.21%  34.3    6s
*14751  1767              66     -20.0441986  -20.08408  0.20%  33.8    6s
*14754  1767              68     -20.0442004  -20.08408  0.20%  33.8    6s
*15124  1764              69     -20.0442776  -20.08051  0.18%  33.4    6s
*15210  1764              73     -20.0443103  -20.07839  0.17%  33.3    6s
*15458  1764              66     -20.0445132  -20.07821  0.17%  32.9    6s
*15872  1815              70     -20.0463546  -20.07621  0.15%  32.5    6s
*16666  1744              67     -20.0468567  -20.07293  0.13%  31.7    6s
*16667  1744              67     -20.0468572  -20.07293  0.13%  31.7    6s
*17601  1818              67     -20.0495559  -20.07164  0.11%  30.8    6s
*19913  1516              69     -20.0498173  -20.06275  0.06%  29.0    7s
*19925  1516              71     -20.0498358  -20.06275  0.06%  29.0    7s
*19926  1516              71     -20.0498361  -20.06275  0.06%  29.0    7s
*20637  1582              63     -20.0508349  -20.06119  0.05%  28.5    7s
*20643  1582              64     -20.0508707  -20.06119  0.05%  28.5    7s
*21537  1593              63     -20.0511222  -20.05834  0.04%  27.7    7s
*22445  1593              68     -20.0511443  -20.05744  0.03%  27.0    7s
*22447  1593              69     -20.0511838  -20.05744  0.03%  27.0    7s
*23585  1589              59     -20.0513649  -20.05384  0.01%  26.1    7s
*23586  1589              59     -20.0513686  -20.05384  0.01%  26.1    7s

Explored 23739 nodes (615892 simplex iterations) in 7.78 seconds
Thread count was 32 (of 72 available processors)

Solution count 10: -20.0514 -20.0514 -20.0512 ... -20.0496

Optimal solution found (tolerance 1.00e-04)
Best objective -2.005136857112e+01, best bound -2.005329130065e+01, gap 0.0096%

User-callback calls 48469, time in user-callback 0.01 sec



objective value: -20.051368571120634
objective bound: -20.0532913006526
x_opt: [1.0, 1.0, 0.0, 0.5550458769052371, 0.0, 0.0, 1.0, 0.0, 0.0, 0.0, 1.0, 0.0, 1.0, 1.0, 0.41820017016515154, 1.0, 0.0, 1.0, 0.0, 0.0, 1.0, 0.5583278702366888, 0.0, 0.7394262889699927, 0.0, 0.7059408171867718, 0.0, 1.0, 0.0, 0.0, 1.0, 0.8401234637424314, 0.0, 0.41652805055136605, 1.0, 1.0, 0.06431316087086707, 1.0, 0.0, 0.9040159828650622, 1.0, 0.0, 1.0, 0.00030377479355912643, 0.0, 0.09727270253333863, 0.7941632651909891, 0.06520558835708531, 1.0, 0.15002642435143898]
GUROBI solution time: 7.780147075653076




